[2026-03-23T13:40:18.356Z] Pipeline "set_exp_2_exp_2_n026_c008_g002" → 2026_03_23_13_40_18_set_exp_2_exp_2_n026_c008_g002_max.sol
Set parameter WLSAccessID
Set parameter WLSSecret
Set parameter LicenseID to value 2792458
Set parameter LogFile to value "gurobi.log"
Using license file /root/gurobi.lic
Academic license 2792458 - for non-commercial use only - registered to an___@studenti.unipg.it

Gurobi Optimizer version 13.0.1 build v13.0.1rc0 (linux64 - "Ubuntu 24.04.4 LTS")
Copyright (c) 2026, Gurobi Optimization, LLC

Warning: Duplicate section found (read 'binary') - Is a variable name equal to an LP file format keyword?
Warning: Duplicate section found (read 'binary') - Is a variable name equal to an LP file format keyword?
Warning: Duplicate section found (read 'binary') - Is a variable name equal to an LP file format keyword?
Warning: Duplicate section found (read 'binary') - Is a variable name equal to an LP file format keyword?
Warning: Duplicate section found (read 'binary') - Is a variable name equal to an LP file format keyword?
Warning: Duplicate section found (read 'binary') - Is a variable name equal to an LP file format keyword?
Warning: Duplicate section found (read 'binary') - Is a variable name equal to an LP file format keyword?
Warning: Duplicate section found (read 'binary') - Is a variable name equal to an LP file format keyword?
Warning: Duplicate section found (read 'binary') - Is a variable name equal to an LP file format keyword?
Warning: Duplicate section found (read 'binary') - Is a variable name equal to an LP file format keyword?
Warning: Further warnings of this type will be omitted.
Read LP format model from file /root/bgw/data/uploads/2026_03_23_13_40_18_set_exp_2_exp_2_n026_c008_g002_max.lp
Reading time = 0.01 seconds
: 6074 rows, 518 columns, 17988 nonzeros

Using Gurobi shared library /opt/gurobi1301/linux64/lib/libgurobi.so.13.0.1

CPU model: AMD EPYC-Genoa Processor, instruction set [SSE2|AVX|AVX2|AVX512]
Thread count: 16 physical cores, 16 logical processors, using up to 16 threads

Academic license 2792458 - for non-commercial use only - registered to an___@studenti.unipg.it
Optimize a model with 6074 rows, 518 columns and 17988 nonzeros (Max)
Model fingerprint: 0x72a70b0a
Model has 8 linear objective coefficients
Variable types: 34 continuous, 484 integer (484 binary)
Coefficient statistics:
  Matrix range     [1e+00, 3e+01]
  Objective range  [1e+00, 1e+00]
  Bounds range     [1e+00, 1e+00]
  RHS range        [1e+00, 3e+01]

Found heuristic solution: objective 8.0000000
Presolve removed 824 rows and 162 columns
Presolve time: 0.03s
Presolved: 5250 rows, 356 columns, 16026 nonzeros
Variable types: 0 continuous, 356 integer (344 binary)
Found heuristic solution: objective 11.0000000

Root relaxation: objective 3.200000e+01, 467 iterations, 0.03 seconds (0.04 work units)

    Nodes    |    Current Node    |     Objective Bounds      |     Work
 Expl Unexpl |  Obj  Depth IntInf | Incumbent    BestBd   Gap | It/Node Time

     0     0   32.00000    0   66   11.00000   32.00000   191%     -    0s
H    0     0                      14.0000000   32.00000   129%     -    0s
H    0     0                      16.0000000   32.00000   100%     -    0s
H    0     0                      17.0000000   32.00000  88.2%     -    0s
H    0     0                      18.0000000   32.00000  77.8%     -    0s
     0     0   32.00000    0   67   18.00000   32.00000  77.8%     -    0s
H    0     0                      19.0000000   32.00000  68.4%     -    0s
     0     0   32.00000    0   67   19.00000   32.00000  68.4%     -    0s
     0     0   32.00000    0   90   19.00000   32.00000  68.4%     -    0s
     0     0   32.00000    0   65   19.00000   32.00000  68.4%     -    0s
H    0     0                      20.0000000   32.00000  60.0%     -    0s
     0     0   32.00000    0   75   20.00000   32.00000  60.0%     -    0s
     0     0   32.00000    0   60   20.00000   32.00000  60.0%     -    0s
H    0     0                      21.0000000   32.00000  52.4%     -    0s
H    0     0                      22.0000000   32.00000  45.5%     -    0s
     0     0   32.00000    0   59   22.00000   32.00000  45.5%     -    0s
     0     0   32.00000    0   59   22.00000   32.00000  45.5%     -    0s
     0     0   32.00000    0   60   22.00000   32.00000  45.5%     -    0s
     0     0   32.00000    0   60   22.00000   32.00000  45.5%     -    0s
     0     0   32.00000    0   71   22.00000   32.00000  45.5%     -    0s
     0     0   32.00000    0   61   22.00000   32.00000  45.5%     -    0s
     0     0   32.00000    0   69   22.00000   32.00000  45.5%     -    0s
     0     0   32.00000    0   69   22.00000   32.00000  45.5%     -    0s
     0     0   32.00000    0   67   22.00000   32.00000  45.5%     -    0s
     0     0   32.00000    0   67   22.00000   32.00000  45.5%     -    0s
     0     0   32.00000    0   66   22.00000   32.00000  45.5%     -    0s
     0     2   32.00000    0   64   22.00000   32.00000  45.5%     -    0s
  3628  1517   23.97917   17   32   22.00000   30.93750  40.6%   165    5s
  5664  1614 infeasible   23        22.00000   29.00000  31.8%   176   10s
 10315  1128 infeasible   32        22.00000   27.00000  22.7%   194   15s
 15835   897   24.83333   27   43   22.00000   25.00000  13.6%   197   20s

Cutting planes:
  Cover: 5
  Inf proof: 24

Explored 19245 nodes (3827780 simplex iterations) in 22.24 seconds (49.90 work units)
Thread count was 16 (of 16 available processors)

Solution count 10: 22 22 22 ... 16

Optimal solution found (tolerance 1.00e-04)
Best objective 2.200000000000e+01, best bound 2.200000000000e+01, gap 0.0000%

Wrote result file '/root/bgw/data/results/2026_03_23_13_40_18_set_exp_2_exp_2_n026_c008_g002_max.sol'

